NAME          BLANK   
ROWS
 N  OBJROW
 E  R0000000
COLUMNS
    C0000000  OBJROW    16.            R0000000  198.        
    C0000001  OBJROW    306.        
    C0000002  OBJROW    367.        
    C0000003  OBJROW    250.        
    C0000004  OBJROW    466.           R0000000   -7.        
    C0000005  OBJROW    407.        
    C0000006  OBJROW    33.         
    C0000007  OBJROW    273.        
    C0000008  OBJROW    218.           R0000000  320.        
    C0000009  OBJROW    178.           R0000000   -366.      
    C0000010  OBJROW    309.           R0000000   -216.      
    C0000011  OBJROW    267.        
    C0000012  OBJROW    499.        
    C0000013  OBJROW    402.           R0000000   -20.       
    C0000014  OBJROW    395.           R0000000   -390.      
    C0000015  OBJROW    470.        
    C0000016  OBJROW    1.             R0000000  159.        
    C0000017  OBJROW    3.             R0000000  289.        
    C0000018  OBJROW    9.          
    C0000019  OBJROW    14.            R0000000  369.        
    C0000020  OBJROW    20.            R0000000  490.        
    C0000021  OBJROW    21.            R0000000  307.        
    C0000022  OBJROW    38.            R0000000  425.        
    C0000023  OBJROW    40.         
    C0000024  OBJROW    42.         
    C0000025  OBJROW    44.            R0000000  472.        
    C0000026  OBJROW    49.         
    C0000027  OBJROW    33.            R0000000  439.        
    C0000028  OBJROW    57.            R0000000  262.        
    C0000029  OBJROW    63.            R0000000  417.        
    C0000030  OBJROW    84.         
    C0000031  OBJROW    89.         
    C0000032  OBJROW    3.             R0000000  222.        
    C0000033  OBJROW    101.           R0000000  211.        
    C0000034  OBJROW    15.            R0000000  364.        
    C0000035  OBJROW    110.        
    C0000036  OBJROW    116.           R0000000  448.        
    C0000037  OBJROW    36.            R0000000  482.        
    C0000038  OBJROW    7.             R0000000  473.        
    C0000039  OBJROW    136.           R0000000  451.        
    C0000040  OBJROW    27.            R0000000  382.        
    C0000041  OBJROW    155.           R0000000  219.        
    C0000042  OBJROW    163.        
    C0000043  OBJROW    168.           R0000000  414.        
    C0000044  OBJROW    7.             R0000000  354.        
    C0000045  OBJROW    13.            R0000000  412.        
    C0000046  OBJROW    187.           R0000000  479.        
    C0000047  OBJROW    15.            R0000000  435.        
    C0000048  OBJROW    192.           R0000000  257.        
    C0000049  OBJROW    213.           R0000000  412.        
    C0000050  OBJROW    5.             R0000000  412.        
    C0000051  OBJROW    18.            R0000000  276.        
    C0000052  OBJROW    218.           R0000000  323.        
    C0000053  OBJROW    22.            R0000000  371.        
    C0000054  OBJROW    227.           R0000000  202.        
    C0000055  OBJROW    18.            R0000000  262.        
    C0000056  OBJROW    241.           R0000000  308.        
    C0000057  OBJROW    242.           R0000000  282.        
    C0000058  OBJROW    262.        
    C0000059  OBJROW    21.            R0000000  468.        
    C0000060  OBJROW    278.           R0000000  428.        
    C0000061  OBJROW    9.             R0000000  469.        
    C0000062  OBJROW    13.            R0000000  253.        
    C0000063  OBJROW    295.           R0000000  292.        
    C0000064  OBJROW    13.            R0000000  214.        
    C0000065  OBJROW    298.           R0000000  406.        
    C0000066  OBJROW    303.           R0000000  214.        
    C0000067  OBJROW    16.            R0000000  367.        
    C0000068  OBJROW    14.            R0000000  249.        
    C0000069  OBJROW    341.           R0000000  213.        
    C0000070  OBJROW    3.             R0000000  356.        
    C0000071  OBJROW    354.           R0000000  355.        
    C0000072  OBJROW    1.             R0000000  454.        
    C0000073  OBJROW    377.        
    C0000074  OBJROW    382.        
    C0000075  OBJROW    386.           R0000000  316.        
    C0000076  OBJROW    4.             R0000000  214.        
    C0000077  OBJROW    387.           R0000000  201.        
    C0000078  OBJROW    2.             R0000000  249.        
    C0000079  OBJROW    390.           R0000000  212.        
    C0000080  OBJROW    390.           R0000000  95.         
    C0000081  OBJROW    2.             R0000000  283.        
    C0000082  OBJROW    396.           R0000000  27.         
    C0000083  OBJROW    1.             R0000000  424.        
    C0000084  OBJROW    401.           R0000000  492.        
    C0000085  OBJROW    3.             R0000000  465.        
    C0000086  OBJROW    410.           R0000000  108.        
    C0000087  OBJROW    4.             R0000000  334.        
    C0000088  OBJROW    424.           R0000000  204.        
    C0000089  OBJROW    6.             R0000000  322.        
    C0000090  OBJROW    429.           R0000000  405.        
    C0000091  OBJROW    1.             R0000000  284.        
    C0000092  OBJROW    440.           R0000000  325.        
    C0000093  OBJROW    4.             R0000000  160.        
    C0000094  OBJROW    449.           R0000000  461.        
    C0000095  OBJROW    1.             R0000000  13.         
    C0000096  OBJROW    1.             R0000000  418.        
    C0000097  OBJROW    487.           R0000000  47.         
    C0000098  OBJROW    490.        
    C0000099  OBJROW    1.             R0000000  424.        
RHS
    RHS       R0000000  32215.      
BOUNDS
 UI BOUND     C0000016         1e+30
 UI BOUND     C0000017         1e+30
 UI BOUND     C0000018         1e+30
 UI BOUND     C0000019         1e+30
 UI BOUND     C0000020         1e+30
 UI BOUND     C0000021         1e+30
 UI BOUND     C0000022         1e+30
 UI BOUND     C0000023         1e+30
 UI BOUND     C0000024         1e+30
 UI BOUND     C0000025         1e+30
 UI BOUND     C0000026         1e+30
 UI BOUND     C0000027         1e+30
 UI BOUND     C0000028         1e+30
 UI BOUND     C0000029         1e+30
 UI BOUND     C0000030         1e+30
 UI BOUND     C0000031         1e+30
 UI BOUND     C0000032         1e+30
 UI BOUND     C0000033         1e+30
 UI BOUND     C0000034         1e+30
 UI BOUND     C0000035         1e+30
 UI BOUND     C0000036         1e+30
 UI BOUND     C0000037         1e+30
 UI BOUND     C0000038         1e+30
 UI BOUND     C0000039         1e+30
 UI BOUND     C0000040         1e+30
 UI BOUND     C0000041         1e+30
 UI BOUND     C0000042         1e+30
 UI BOUND     C0000043         1e+30
 UI BOUND     C0000044         1e+30
 UI BOUND     C0000045         1e+30
 UI BOUND     C0000046         1e+30
 UI BOUND     C0000047         1e+30
 UI BOUND     C0000048         1e+30
 UI BOUND     C0000049         1e+30
 UI BOUND     C0000050         1e+30
 UI BOUND     C0000051         1e+30
 UI BOUND     C0000052         1e+30
 UI BOUND     C0000053         1e+30
 UI BOUND     C0000054         1e+30
 UI BOUND     C0000055         1e+30
 UI BOUND     C0000056         1e+30
 UI BOUND     C0000057         1e+30
 UI BOUND     C0000058         1e+30
 UI BOUND     C0000059         1e+30
 UI BOUND     C0000060         1e+30
 UI BOUND     C0000061         1e+30
 UI BOUND     C0000062         1e+30
 UI BOUND     C0000063         1e+30
 UI BOUND     C0000064         1e+30
 UI BOUND     C0000065         1e+30
 UI BOUND     C0000066         1e+30
 UI BOUND     C0000067         1e+30
 UI BOUND     C0000068         1e+30
 UI BOUND     C0000069         1e+30
 UI BOUND     C0000070         1e+30
 UI BOUND     C0000071         1e+30
 UI BOUND     C0000072         1e+30
 UI BOUND     C0000073         1e+30
 UI BOUND     C0000074         1e+30
 UI BOUND     C0000075         1e+30
 UI BOUND     C0000076         1e+30
 UI BOUND     C0000077         1e+30
 UI BOUND     C0000078         1e+30
 UI BOUND     C0000079         1e+30
 UI BOUND     C0000080         1e+30
 UI BOUND     C0000081         1e+30
 UI BOUND     C0000082         1e+30
 UI BOUND     C0000083         1e+30
 UI BOUND     C0000084         1e+30
 UI BOUND     C0000085         1e+30
 UI BOUND     C0000086         1e+30
 UI BOUND     C0000087         1e+30
 UI BOUND     C0000088         1e+30
 UI BOUND     C0000089         1e+30
 UI BOUND     C0000090         1e+30
 UI BOUND     C0000091         1e+30
 UI BOUND     C0000092         1e+30
 UI BOUND     C0000093         1e+30
 UI BOUND     C0000094         1e+30
 UI BOUND     C0000095         1e+30
 UI BOUND     C0000096         1e+30
 UI BOUND     C0000097         1e+30
 UI BOUND     C0000098         1e+30
 UI BOUND     C0000099         1e+30
ENDATA
